500
[56,57,58,59,63,67,69,70,71,76,77,78,79,80,81,83,87,88,90,93,94,96,97,98,100,102,104,110,111,115,119,120,124,125,129,130,131,134,138,139,142,144,147,148,151,152,153,156,157,158,159,160,162,164,165,166,168,169,170,173,174,179,180,182,184,188,190,192,196,197,198,200,201,202,207,209,210,211,215,216,218,220,222,223,224,225,227,229,230,231,232,233,237,238,239,243,245,246,249,252,256,259,260,262,264,265,268,276,277,279,281,283,287,288,290,291,292,293,296,298,299,300,301,303,305,306,309,313,314,316,318,327,329,330,331,332,335,338,339,340,342,343,350]
[1,2,1,1,1,2,2,1,1,2,1,1,2,2,2,2,1,1,2,2,1,2,1,1,1,2,1,1,1,1,1,1,1,2,2,1,2,2,1,1,3,1,1,1,1,1,2,1,1,1,1,1,1,1,2,2,3,2,2,1,1,1,1,1,2,1,1,2,1,2,1,1,2,2,2,1,1,2,1,1,1,2,1,1,3,1,2,1,2,1,1,1,2,1,1,1,1,1,1,2,1,1,1,1,2,1,1,2,1,1,1,1,1,2,1,1,1,2,1,2,1,2,1,1,3,3,1,1,1,3,2,4,1,1,1,1,1,2,1,1,2,1,1]
